Translating instance to solver...

Set parameter TimeLimit to value 28800
Gurobi Optimizer version 11.0.2 build v11.0.2rc0 (linux64 - "Ubuntu 22.04.4 LTS")

CPU model: Intel(R) Xeon(R) Gold 5120 CPU @ 2.20GHz, instruction set [SSE2|AVX|AVX2|AVX512]
Thread count: 28 physical cores, 56 logical processors, using up to 28 threads

Academic license 2463511 - for non-commercial use only - registered to lu___@cefet-rj.br
Optimize a model with 24835 rows, 13713 columns and 58929 nonzeros
Model fingerprint: 0x5ca79eee
Variable types: 1 continuous, 13712 integer (13680 binary)
Coefficient statistics:
  Matrix range     [1e+00, 1e+05]
  Objective range  [3e-01, 8e-01]
  Bounds range     [1e+00, 3e+01]
  RHS range        [1e+00, 3e+01]
Presolve removed 21476 rows and 12274 columns
Presolve time: 0.28s
Presolved: 3359 rows, 1439 columns, 10983 nonzeros
Variable types: 0 continuous, 1439 integer (1408 binary)

Root relaxation: objective 6.354662e-01, 456 iterations, 0.01 seconds (0.01 work units)

    Nodes    |    Current Node    |     Objective Bounds      |     Work
 Expl Unexpl |  Obj  Depth IntInf | Incumbent    BestBd   Gap | It/Node Time

     0     0    0.63547    0   57          -    0.63547      -     -    0s
H    0     0                       1.0617820    0.65269  38.5%     -    0s
     0     0    0.91767    0   59    1.06178    0.91767  13.6%     -    0s
     0     0    0.91767    0   58    1.06178    0.91767  13.6%     -    0s
     0     0    0.91767    0   13    1.06178    0.91767  13.6%     -    0s
     0     0    0.91767    0   34    1.06178    0.91767  13.6%     -    0s
     0     0    0.91767    0   40    1.06178    0.91767  13.6%     -    0s
     0     0    0.91767    0   10    1.06178    0.91767  13.6%     -    0s
     0     0    0.91767    0   18    1.06178    0.91767  13.6%     -    0s
     0     0    0.91767    0   11    1.06178    0.91767  13.6%     -    0s
     0     0    0.91767    0   11    1.06178    0.91767  13.6%     -    0s
     0     2    0.91767    0   11    1.06178    0.91767  13.6%     -    0s

Cutting planes:
  Learned: 9
  Gomory: 14
  Implied bound: 10
  MIR: 3
  StrongCG: 1
  Flow cover: 18
  Zero half: 24
  RLT: 24

Explored 16 nodes (4820 simplex iterations) in 1.21 seconds (0.69 work units)
Thread count was 28 (of 56 available processors)

Solution count 1: 1.06178 

Optimal solution found (tolerance 1.00e-04)
Best objective 1.061782000000e+00, best bound 1.061782000000e+00, gap 0.0000%

Solver Wallclock Time (for this epsilon): 1.2134580612182617 s
Python wallclock Time (for this epsilon): 3.005371570587158 s


Total Elapsed Time (since program call): 41.02468705177307 s

Results:

I = 1.061782 mA
C = 28.0 points
C ~= 11.200000000000001 km^2

Minimum Epsilon for this instance = 10
Maximum Epsilon for this instance = 100

Current Epsilon = 20


Preprocessing Time (for this epsilon): 0.005191802978515625 s


Updated solution vectors:
sol_I = [-0.611782,-1.061782]
sol_C = [12.0,28.0]
sol_eps = [10,20]
sol_gap = [0.0,0.0]
